2
4
40
1 1.3 1.55 1.75 2.1
30 21 45 37 42 41 45 9 12 9 33 6 17 35 5 17 21 35 17 33 6 19 43 26 15 27 29 30 19 10 8 7 5 23 22 44 45 23 28 41 8 13 34 48 37 34 24 9 11 26 27 22 47 18 19 27 14 39 23 46 28 47 32 49 17 33 40 8 29 30 20 13 38 22 20 12 36 7 39 16 35 46 6 14 49 44 38 31 29 44 10 24 46 39 24 33 14 13 38 44 48 16 41 13 45 7 21 39 24 47 35 33 19 17 22 42 35 38 16 46 18 28 42 18 43 29 17 47 17 49 15 5 13 47 26 36 17 35 17 37 44 48 23 40 26 41 5 46 20 36 20 45 43 47 49 7 8 49 28 31 